p cnf 42 139
3 -1 0
3 2 0
1 -2 -3 0
5 -3 0
5 4 0
3 -4 -5 0
-7 -6 0
-7 -6 0
6 7 0
-7 2 -8 0
7 -2 -8 0
-7 -2 8 0
7 2 8 0
-5 -8 -9 0
5 8 -9 0
-5 8 9 0
5 -8 9 0
11 10 0
11 -6 0
-10 6 -11 0
-9 11 -12 0
9 -11 -12 0
-9 -11 12 0
9 11 12 0
13 -3 0
13 6 0
3 -6 -13 0
-17 15 0
-17 16 0
-15 -16 17 0
-14 -17 -18 0
14 17 -18 0
-14 17 18 0
14 -17 18 0
15 -19 -20 0
-15 19 -20 0
15 19 20 0
-15 -19 20 0
-20 21 0
20 21 0
4 -22 -23 0
-4 22 -23 0
4 22 23 0
-4 -22 23 0
-24 -23 0
-24 -2 0
23 2 24 0
-25 -21 0
-25 -24 0
21 24 25 0
26 -18 0
26 -25 0
18 25 -26 0
-27 -13 0
-27 -26 0
13 26 27 0
16 17 -28 0
-16 -17 -28 0
16 -17 28 0
-16 17 28 0
29 27 0
29 -28 0
-27 28 -29 0
30 12 0
30 -29 0
-12 29 -30 0
1 15 -31 0
-1 -15 -31 0
1 -15 31 0
-1 15 31 0
32 -30 0
32 31 0
30 -31 -32 0
-6 -33 0
6 -33 0
-34 -22 0
-34 -33 0
22 33 34 0
-35 32 0
-35 -34 0
-32 34 35 0
36 10 0
36 -19 0
-10 19 -36 0
-37 -35 0
-37 -36 0
35 36 37 0
-6 19 -38 0
6 -19 -38 0
-6 -19 38 0
6 19 38 0
6 2 -39 0
-6 -2 -39 0
6 -2 39 0
-6 2 39 0
-39 15 -40 0
39 -15 -40 0
-39 -15 40 0
39 15 40 0
-41 -38 0
-41 -40 0
38 40 41 0
37 41 -42 0
-37 -41 -42 0
37 -41 42 0
-37 41 42 0
42 22 0
-35 5 -41 -27 40 0
-17 -41 -1 30 3 0
7 31 -5 -41 -20 36 0
-1 6 0
30 -28 0
29 6 0
-25 -16 0
42 38 36 0
39 -4 -5 -32 0
9 30 34 -19 -36 -25 0
14 -21 7 -24 -30 0
36 33 0
-2 40 -32 -41 0
-14 42 -21 0
-15 33 0
7 -20 -8 0
42 14 -27 0
23 8 0
41 -9 -37 -31 36 -40 0
1 -25 18 11 7 0
17 23 0
8 35 15 -25 -1 0
-25 -6 -29 -39 0
31 -6 -35 41 0
-38 14 3 -18 -42 -9 0
-32 19 25 38 10 0
-40 27 -41 -10 0
-26 32 0
-21 -8 -32 0
25 -7 -14 0
31 -17 0
42 0
